n_res = 4;
rc = [ 27, 31, 28, 31 ];
n_tasks = 60;
d = [ 9, 8, 8, 5, 1, 6, 6, 2, 8, 9, 4, 5, 3, 6, 9, 1, 7, 5, 6, 3, 1, 10, 5, 5, 6, 6, 4, 7, 4, 4, 6, 8, 10, 8, 2, 6, 4, 6, 6, 5, 2, 10, 7, 7, 4, 6, 10, 10, 1, 6, 4, 4, 1, 3, 8, 4, 1, 9, 2, 5 ];
rr = [| 1, 0, 0, 0, 2, 8, 10, 0, 7, 10, 0, 3, 8, 3, 1, 7, 0, 0, 5, 9, 10, 1, 2, 0, 3, 5, 2, 10, 0, 9, 4, 10, 0, 5, 5, 0, 4, 9, 0, 10, 10, 3, 3, 8, 8, 0, 0, 0, 4, 4, 8, 4, 3, 9, 0, 3, 10, 1, 8, 7
      | 7, 2, 1, 10, 5, 0, 2, 0, 0, 3, 3, 2, 0, 0, 2, 9, 7, 2, 0, 2, 4, 8, 0, 3, 5, 1, 8, 0, 6, 1, 4, 0, 4, 6, 0, 9, 7, 7, 10, 5, 8, 9, 7, 8, 7, 0, 0, 8, 2, 2, 0, 6, 6, 0, 8, 1, 0, 0, 7, 0
      | 8, 8, 2, 9, 5, 3, 10, 2, 0, 10, 4, 6, 7, 6, 10, 6, 2, 0, 6, 0, 10, 5, 10, 3, 0, 8, 0, 2, 4, 10, 4, 0, 1, 0, 0, 0, 0, 7, 0, 10, 0, 3, 2, 8, 4, 6, 6, 7, 0, 5, 10, 9, 0, 0, 2, 1, 2, 1, 2, 2
      | 4, 0, 8, 9, 9, 3, 2, 6, 6, 0, 9, 2, 5, 5, 0, 8, 5, 10, 0, 9, 0, 10, 6, 3, 5, 4, 0, 7, 9, 7, 2, 0, 0, 5, 8, 7, 7, 0, 10, 2, 2, 1, 6, 2, 0, 5, 8, 7, 1, 1, 8, 4, 5, 5, 10, 7, 3, 0, 10, 5 |];
suc = [ { 4, 6, 7 },
       { 12, 13, 39 },
       { 8, 41 },
       { 5, 13, 31 },
       { 8, 18, 30 },
       { 9, 14, 16 },
       { 40, 45, 49 },
       { 34 },
       { 10, 11, 15 },
       { 17, 22, 36 },
       { 19, 21, 23 },
       { 21, 29, 38 },
       { 19, 34 },
       { 17, 30, 34 },
       { 17, 26, 28 },
       { 20, 33, 40 },
       { 20 },
       { 26, 32, 52 },
       { 46, 58 },
       { 25, 27, 39 },
       { 27, 35, 40 },
       { 25, 42, 44 },
       { 24, 54 },
       { 27, 30, 36 },
       { 35, 54 },
       { 37, 38, 44 },
       { 43 },
       { 42, 56, 59 },
       { 32, 37 },
       { 33, 44, 48 },
       { 35, 38, 39 },
       { 36, 53 },
       { 52 },
       { 45, 51, 55 },
       { 37, 43 },
       { 46, 47, 48 },
       { 47, 50 },
       { 41, 45, 53 },
       { 41, 52 },
       { 47, 60 },
       { 42, 54, 59 },
       { 49 },
       { 48, 49, 51 },
       { 46, 53 },
       { 60 },
       { 60 },
       { 51, 57 },
       { 50 },
       { 50 },
       { 57 },
       { 58 },
       { 56, 59 },
       { 55 },
       { 55 },
       { 56 },
       { 57 },
       { 58 },
       {  },
       {  },
       {  } ];
